# Objective value = 3.0437195949257580e+02
x[0] -2.0164182262865677e-08
x[1] 0
x[2] 1
x[3] 0
x[4] -1.6383398415698025e-08
x[5] 0
x[6] 1
x[7] 1
x[8] 1
x[9] 1
x[10] 0
x[11] 1
x[12] 0
x[13] 1
x[14] 0
x[15] 1
x[16] 9.9999998865764772e-01
x[17] 1
x[18] 0
x[19] 0
x[20] 1
x[21] 0
x[22] 1
x[23] -3.4027056394769772e-08
x[24] -1.0082091161933704e-08
x[25] 1
x[26] 0
x[27] 0
x[28] -6.4720780344384628e-08
x[29] 1.0000000339588102e+00
x[30] 1.0000000339596880e+00
x[31] 1.0000000201070407e+00
x[32] 1
x[33] 0
x[34] 0
x[35] -3.0693723394503343e-08
x[36] 0
x[37] 0
x[38] 0
x[39] 1
x[40] 0
x[41] 1
x[42] 1.0000000339552610e+00
x[43] 1
x[44] 0
x[45] 0
x[46] 0
x[47] 0
x[48] -3.0693723395894555e-08
x[49] 1
x[50] 0
x[51] 1
x[52] 1
x[53] 0
x[54] 0
x[55] 1
x[56] 1.0000000680030252e+00
x[57] 1.0000000200972639e+00
x[58] 1
x[59] 1
x[60] 0
x[61] 0
x[62] 0
x[63] -1.3680195030585006e-08
x[64] -2.2271473177290356e-07
x[65] 1
x[66] 9.9999996597294338e-01
x[67] 0
x[68] 0
x[69] 0
x[70] 1
x[71] 1.0000000339704358e+00
x[72] 1
x[73] 1
x[74] 0
x[75] 1
x[76] 1
x[77] 6.7995436087544337e-08
x[78] 1
x[79] 0
x[80] 1.0000000200688917e+00
x[81] 0
x[82] 0
x[83] 9.9999963584112272e-01
x[84] 1.0000000339075403e+00
x[85] 0
x[86] 0
x[87] 0
x[88] 0
x[89] -3.0693723394503343e-08
x[90] 0
x[91] 0
x[92] 1
x[93] 1
x[94] 6.7962328254228927e-08
x[95] 1
x[96] 0
x[97] 9.9999996444526928e-01
x[98] 0
x[99] 1
x[100] 1
x[101] 1.0000000338827360e+00
x[102] 1.3589206045149166e-07
x[103] 0
x[104] 1.0000000339634867e+00
x[105] 1
x[106] 1
x[107] 0
x[108] 0
x[109] 0
x[110] 1
x[111] 0
x[112] -6.4720780268673885e-08
x[113] 1
x[114] 3.8823670266729581e-08
x[115] 9.9999993194588677e-01
x[116] 1
x[117] 0
x[118] 0
x[119] 1
x[120] 1
x[121] 1
x[122] -2.1938139843957022e-07
x[123] 1
x[124] 1
x[125] 1.0000000339709338e+00
x[126] 0
x[127] 0
x[128] 0
x[129] 0
x[130] 1
x[131] 0
x[132] 1
x[133] 1
x[134] 1
x[135] 1
x[136] 1
x[137] 1
x[138] 0
x[139] 1
x[140] 1
x[141] 1
x[142] 1
x[143] 1
x[144] 1
x[145] 1.0000000200584229e+00
x[146] 1
x[147] -3.06937233115238e-08
x[148] 1
x[149] 0
x[150] 1
x[151] 0
x[152] 1
x[153] -3.4027056727836680e-08
x[154] 0
x[155] 1
x[156] 0
x[157] 0
x[158] 1
x[159] 1
x[160] 0
x[161] -3.4027056283747470e-08
x[162] -1.3862874403969272e-08
x[163] 0
x[164] 1.0000002225191444e+00
x[165] 0
x[166] -3.4027056394769772e-08
x[167] 1
x[168] 1
x[169] 1
x[170] 0
x[171] 0
x[172] 0
x[173] 1
x[174] 0
x[175] 0
x[176] 1
x[177] 1
x[178] 0
x[179] 1.0000002565925408e+00
x[180] -3.4027056949881285e-08
x[181] 0
x[182] 0
x[183] 1
x[184] 0
x[185] 0
x[186] 1
x[187] 1
x[188] 1.0000000679976504e+00
x[189] 1
x[190] 9.9999993527921949e-01
x[191] 1
x[192] 0
x[193] 0
x[194] 0
x[195] 1
x[196] -3.4027056727836680e-08
x[197] 9.9999993194588677e-01
x[198] 0
x[199] 0
x[200] -1.3862874403969272e-08
x[201] 1
x[202] -6.4720780344384628e-08
x[203] 1
x[204] 1
x[205] 1
x[206] 0
x[207] 0
x[208] 1
x[209] 0
x[210] 0
x[211] 0
x[212] 0
x[213] 1
x[214] 1
x[215] 0
x[216] 1
x[217] 0
x[218] 0
x[219] 1
x[220] 1
x[221] 0
x[222] 0
x[223] 1.0000000169652963e+00
x[224] 0
x[225] -1.6830848990534074e-08
x[226] 1
x[227] 1
x[228] 1
x[229] 0
x[230] 1
x[231] 0
x[232] 1
x[233] 1
x[234] 0
x[235] 5.7386036021431068e-07
x[236] 0
x[237] 1
x[238] 0
x[239] -3.4027056949881285e-08
x[240] 0
x[241] 1
x[242] 0
x[243] 1
x[244] 6.7925530647097118e-08
x[245] 0
x[246] 1.0000000679932355e+00
x[247] 1.0000000337703350e+00
x[248] 0
x[249] 1
x[250] 0
x[251] 0
x[252] -1.5164182323867409e-08
x[253] 1.0000000339662170e+00
x[254] 1
x[255] 0
x[256] 0
x[257] 0
x[258] 0.999999666534846
x[259] 0
x[260] 1
x[261] 0
x[262] 0
x[263] 1
x[264] 1
x[265] 0
x[266] 1
x[267] 1
x[268] 0
x[269] 1
x[270] 0
x[271] 0
x[272] 0
x[273] 0
x[274] 0
x[275] 0
x[276] 0
x[277] 0
x[278] 1
x[279] 0
x[280] 1
x[281] 1
x[282] 0
x[283] 1
x[284] 1
x[285] 0
x[286] 0
x[287] 1
x[288] 0.999999965972943
x[289] 0
x[290] 0
x[291] 0
x[292] 0
x[293] 1
x[294] 0
x[295] 1
x[296] 1
x[297] 0
x[298] 0
x[299] 0
x[300] 0
x[301] 0
x[302] 0
x[303] 0
x[304] 1
x[305] 0
x[306] 1.0000002907001917e+00
x[307] 1
x[308] -2.8743551166823219e-07
x[309] 1
x[310] -6.47207795717884e-08
x[311] 1
x[312] 0
x[313] 0
x[314] -3.4027056727836680e-08
x[315] 0
x[316] 0
x[317] 1
x[318] 1
x[319] 0
x[320] 0
x[321] 1
x[322] 0
x[323] 1
x[324] 0
x[325] 1
x[326] 1
x[327] 1
x[328] 1
x[329] 0
x[330] -3.4027056505792075e-08
x[331] 0
x[332] 1
x[333] 1
x[334] 1
x[335] 1
x[336] 0
x[337] 1
x[338] 0
x[339] 6.7998293747900461e-08
x[340] 1.0000000339537074e+00
x[341] 0
x[342] 1.0000002906658079e+00
x[343] 0
x[344] -3.4027056949881285e-08
x[345] 1
x[346] 0
x[347] 1
x[348] 1
x[349] 1
x[350] 1
x[351] 1
x[352] 1
x[353] 1
x[354] 0
x[355] 1.0000000146961945e+00
x[356] 1.0000000339024495e+00
x[357] 0
x[358] 0
x[359] 0
x[360] 1
x[361] 0
x[362] 1
x[363] 0
x[364] 1
x[365] 0
x[366] 1
x[367] 1
x[368] 1
x[369] 1.0000000100144804e+00
x[370] 1.0000000339697057e+00
x[371] 0
x[372] 1
x[373] 0
x[374] 1
x[375] 0
x[376] 0
x[377] 1
x[378] 0
x[379] 0
x[380] 1
x[381] 0
x[382] 1
x[383] 1
x[384] 0
x[385] 0
x[386] 1
x[387] 0
x[388] 0
x[389] 0
x[390] 0
x[391] 1
x[392] 0
x[393] 1
x[394] 1
x[395] 1
x[396] 0
x[397] 0
x[398] 3.3901623784746575e-08
x[399] -1.5164182323867409e-08
x[400] 0
x[401] 0
x[402] 0
x[403] 0
x[404] 1
x[405] 1
x[406] 0
x[407] 3.3899372370669960e-08
x[408] 9.9999996607530917e-01
x[409] 1
x[410] 0
x[411] 1
x[412] 1
x[413] 6.8005070311831707e-08
x[414] 1
x[415] 0
x[416] 0
x[417] 1
x[418] 1.0000000339728119e+00
x[419] -6.8054112567494940e-08
x[420] 1
x[421] 0
x[422] 0
x[423] 0
x[424] 0
x[425] 1
x[426] 1
x[427] 1
x[428] 0
x[429] 3.3799602238007388e-08
x[430] 1
x[431] 1
x[432] 0
x[433] 0
x[434] -5.1831116763673482e-09
x[435] 0
x[436] 1
x[437] 9.5526498263781132e-08
x[438] 0
x[439] 0
x[440] 1
x[441] 0
x[442] 1.0000002226516209e+00
x[443] 1
x[444] 0
x[445] 1
x[446] 1
x[447] 0
x[448] 1
x[449] 0
x[450] 0
x[451] 1.0000001886227787e+00
x[452] 0
x[453] -2.9027056616814379e-08
x[454] 9.9999996597294338e-01
x[455] 1
x[456] 0
x[457] 0
x[458] 1
x[459] 1
x[460] 1
x[461] 3.3333914701356806e-07
x[462] 1
x[463] 1
x[464] 1
x[465] 0
x[466] 1
x[467] 0
x[468] -2.9027056729227893e-08
x[469] 1.0000002907201071e+00
x[470] 1
x[471] 0
x[472] 0
x[473] 1.0000000339703237e+00
x[474] 1
x[475] 0
x[476] 0
x[477] 0
x[478] 0
x[479] 0
x[480] 1
x[481] 1
x[482] 0
x[483] 1
x[484] 0
x[485] 0
x[486] 0
x[487] 9.9999993527922015e-01
x[488] -6.4720779900295418e-08
x[489] 1
x[490] 1
x[491] 0
x[492] 0
x[493] -2.0164182323867408e-08
x[494] 0
x[495] 1
x[496] 1
x[497] -1.6830848973270537e-08
x[498] 1
x[499] 1.0000002906466536e+00
x[500] 0
x[501] 3.3975386653202946e-08
x[502] 0
x[503] 1
x[504] 1
x[505] 1
x[506] 1
x[507] 0
x[508] 0
x[509] 6.7966229920099212e-08
x[510] 1
x[511] 0
x[512] 0
x[513] 0
x[514] 1
x[515] 0
x[516] 0
x[517] 0
x[518] 1
x[519] 0
x[520] 1
x[521] 6.7974538707096344e-08
x[522] 0
x[523] 0
x[524] 1.0000003999527654e+00
x[525] 1
x[526] 0
x[527] 1
x[528] 9.9999993694588674e-01
x[529] -3.4027056727836680e-08
x[530] 0
x[531] 0
x[532] 0
x[533] 1
x[534] 0
x[535] 1.0000000339741641e+00
x[536] 1.0000000097821360e+00
x[537] 0
x[538] 0
x[539] 1
x[540] 1
x[541] 0
x[542] 1
x[543] 0
x[544] 1
x[545] 1
x[546] 1
x[547] 1
x[548] 0
x[549] 0
x[550] 0
x[551] 0
x[552] 0
x[553] 9.9999996880124753e-01
x[554] 1
x[555] 0
x[556] 0
x[557] 0.999999935328263
x[558] 1
x[559] 0
x[560] 1.0000000680041876e+00
x[561] 1.2954363736886157e-08
x[562] 1
x[563] 0
x[564] 1
x[565] 1
x[566] 1
x[567] 0
x[568] 1
x[569] 0
x[570] 1
x[571] 1
x[572] 1
x[573] 0
x[574] 1
x[575] 0
x[576] 1
x[577] 9.9999993194588677e-01
x[578] 1
x[579] 0
x[580] 1
x[581] 1
x[582] 1
x[583] 0
x[584] 1
x[585] 1
x[586] -3.4027056727836680e-08
x[587] -6.8054113011584150e-08
x[588] 1
x[589] 1
x[590] 0
x[591] 1.0000000339732711e+00
x[592] 1.0000002566221804e+00
x[593] 0
x[594] 1
x[595] 1
x[596] 1
x[597] 1
x[598] 0
x[599] 1
x[600] 0
x[601] 1
x[602] 1
x[603] 1
x[604] 1.0000000200970514e+00
x[605] 1
x[606] 1.0000000137245963e+00
x[607] 0
x[608] 9.9999996930627688e-01
x[609] 9.9999993694588618e-01
x[610] 0
x[611] 0
x[612] 1
x[613] 0
x[614] 0
x[615] 1.0000000338122668e+00
x[616] 1.0000000339299442e+00
x[617] 9.9999996935794666e-01
x[618] 1
x[619] 0
x[620] 1.0000000339787471e+00
x[621] 0
x[622] -6.8054113233628755e-08
x[623] 1
x[624] 0
x[625] 0
x[626] 0
x[627] 0
x[628] 1
x[629] 0
x[630] 1
x[631] 1
x[632] 0
x[633] 0
x[634] 9.9999993474305438e-01
x[635] 1
x[636] 0
x[637] -3.4027056727836680e-08
x[638] 0
x[639] 1
x[640] 1.0000000679399998e+00
x[641] 1
x[642] -3.0632883713306224e-08
x[643] 5.84522533852403e-07
x[644] 1
x[645] 0
x[646] -6.8054113289714274e-08
x[647] 0
x[648] 1
x[649] 1
x[650] 1
x[651] 1
x[652] 0
x[653] 1
x[654] 0
x[655] -2.9128077242270325e-08
x[656] 1
x[657] 1
x[658] -6.3054113233628750e-08
x[659] -2.9076884500156552e-07
x[660] 1
x[661] 1
x[662] 1.0000000200812273e+00
x[663] 1
x[664] 0
x[665] 1
x[666] 1
x[667] 0
x[668] 1
x[669] 1
x[670] 1
x[671] 0
x[672] -3.4027056727836680e-08
x[673] -2.0164182323867408e-08
x[674] -2.5674178827372884e-07
x[675] 1
x[676] 0
x[677] 1
x[678] 0
x[679] 1
x[680] 0
x[681] 1
x[682] 1
x[683] 3.3018587176401206e-08
x[684] 0
x[685] 1
x[686] 1
x[687] 0
x[688] 1
x[689] 1
x[690] 0
x[691] -3.4027056616814377e-08
x[692] 0
x[693] 0
x[694] 0
x[695] 1
x[696] 0
x[697] 0
x[698] 0
x[699] 0
x[700] 0
x[701] 0
x[702] 1.0000000339007724e+00
x[703] 1
x[704] 1
x[705] 0
x[706] 6.7921945935486762e-08
x[707] 1
x[708] 0
x[709] 1
x[710] 1
x[711] 0
x[712] 1.0000000338212276e+00
x[713] 1.0000000301940468e+00
x[714] 0
x[715] 1
x[716] 0
x[717] 0
x[718] 1
x[719] 3.3925844324753840e-08
x[720] 1.0000000679755596e+00
x[721] 1
x[722] 1
x[723] 1
x[724] 1
x[725] 0
x[726] 1
x[727] 0
x[728] 1
x[729] 0
x[730] 0
x[731] 1
x[732] 0
x[733] 0
x[734] 0
x[735] 1
x[736] 1
x[737] 0
x[738] 6.7951305865191513e-08
x[739] 1
x[740] -2.8743551166823219e-07
x[741] 0
x[742] 1
x[743] 1.0000000336357489e+00
x[744] 1
x[745] 0
x[746] 1
x[747] 0
x[748] 1
x[749] 1
x[750] 0
x[751] 1
x[752] 1
x[753] 1
x[754] -3.4027056949881285e-08
x[755] 0
x[756] 0
x[757] 1
x[758] 9.9999996597294372e-01
x[759] 0
x[760] 0
x[761] 0
x[762] 1
x[763] 0
x[764] 9.9999981625389456e-01
x[765] 1
x[766] 0
x[767] 1
x[768] 0
x[769] 1
x[770] 0
x[771] 1
x[772] 0
x[773] 1
x[774] 1
x[775] -3.0626354460665412e-08
x[776] 0
x[777] 0
x[778] 0
x[779] 0
x[780] 0
x[781] 1
x[782] 0
x[783] -3.0693723394503343e-08
x[784] 0
x[785] 0
x[786] -3.4027056727836680e-08
x[787] 1
x[788] 0
x[789] -3.4027056729227892e-08
x[790] 0
x[791] 0
x[792] 0
x[793] 0
x[794] 0
x[795] 0
x[796] 0
x[797] 1
x[798] 1.0000000162998477e+00
x[799] 1
x[800] 1
x[801] 1
x[802] 1.0000000329042871e+00
x[803] 1
x[804] 1
x[805] 0
x[806] 1
x[807] 0
x[808] 0
x[809] 0
x[810] 0
x[811] 1
x[812] 1
x[813] 0
x[814] 0
x[815] 1
x[816] 1.0000000678407364e+00
x[817] 1
x[818] 1
x[819] 1
x[820] 1
x[821] 0
x[822] 1
x[823] -2.2684704559239321e-08
x[824] 1
x[825] 0
x[826] 1
x[827] 1
x[828] 0
x[829] 0
x[830] 0
x[831] 1
x[832] 0
x[833] 1
x[834] 1
x[835] -2.9027056949881286e-08
x[836] 1.0000000281940058e+00
x[837] 0
x[838] -3.9666182458193350e-07
x[839] 0
x[840] 0
x[841] 0
x[842] 1
x[843] -3.4027056727836680e-08
x[844] 1
x[845] 1
x[846] 0
x[847] 1
x[848] 1
x[849] 0
x[850] 1
x[851] 1
x[852] 1
x[853] 1
x[854] 0
x[855] 0
x[856] 0
x[857] 1
x[858] 1
x[859] 1
x[860] 3.6733715723997784e-07
x[861] 0
x[862] 1
x[863] 1
x[864] -1.4745490606316025e-08
x[865] 0
x[866] 0
x[867] 0
x[868] 1
x[869] 1
x[870] 6.8008060287785547e-08
x[871] 1
x[872] 0
x[873] 1
x[874] 1
x[875] 1
x[876] 0
x[877] 1
x[878] 1
x[879] 0
x[880] 0
x[881] 0
x[882] 0
x[883] 0
x[884] 1
x[885] 1
x[886] 0
x[887] 0
x[888] 1
x[889] 9.9999993533503961e-01
x[890] 0
x[891] 1
x[892] 0
x[893] 1
x[894] 1
x[895] 1
x[896] 1
x[897] -2.8738677374647280e-07
x[898] 0
x[899] 1
x[900] 0
x[901] 0
x[902] 1
x[903] 1.0000000540610534e+00
x[904] 1
x[905] -2.0164182323867408e-08
x[906] 1.0000000329573211e+00
x[907] 1.0000000137035436e+00
x[908] 1
x[909] 1
x[910] 1.0000000679925072e+00
x[911] 3.6741819346179342e-07
x[912] 0
x[913] 0
x[914] 1
x[915] 0
x[916] 0
x[917] 1
x[918] 1.0000000336621173e+00
x[919] 1
x[920] 0
x[921] 0
x[922] -3.02462728196673e-08
x[923] 0
x[924] 1.0000000338644826e+00
x[925] 1
x[926] 0
x[927] 0
x[928] 0
x[929] 0
x[930] 0
x[931] 1
x[932] 1
x[933] 0
x[934] 1
x[935] 1.0000000339758826e+00
x[936] 0
x[937] 1
x[938] 0
x[939] 0
x[940] 1
x[941] 0
x[942] 1
x[943] 1
x[944] 0
x[945] 0
x[946] 0
x[947] 0
x[948] 0
x[949] 1.0000000679981431e+00
x[950] 1
x[951] 0
x[952] -2.5325920745268603e-07
x[953] 0
x[954] 0
x[955] 0
x[956] 0
x[957] 1
x[958] -2.0164182262865677e-08
x[959] 0
x[960] 0
x[961] -3.4027056727836680e-08
x[962] 1
x[963] 1.0000000339712980e+00
x[964] 0
x[965] 1
x[966] 0
x[967] 1
x[968] 1
x[969] 1.0000000339766444e+00
x[970] 0
x[971] 1.0000002904778305e+00
x[972] 1
x[973] 1
x[974] 0
x[975] 0
x[976] -6.8054113233628755e-08
x[977] 0
x[978] 1
x[979] 1
x[980] 0
x[981] 1
x[982] -6.4968384832506312e-08
x[983] 1
x[984] 0
x[985] 0
x[986] 0
x[987] 0
x[988] 1
x[989] 1
x[990] 0
x[991] 1.0000000225994037e+00
x[992] 0
x[993] 1
x[994] 9.9999993535879461e-01
x[995] 1
x[996] 0
x[997] 0
x[998] 1
x[999] -2.0164182262865677e-08
